outputs/case_469.model.txt
investment_non_self_use_real_estate_amount = 1833000000
total_deposit_balance = 100000000000
exception_short_term_prepurchase = False
investment_self_use_real_estate_amount = 0
investment_business_warehouse_amount = 0
net_worth_at_investment_time = 8600000000
board_approval_ratio = 0
real_estate_transaction_with_related_party = False
net_worth = 8600000000
exception_rebuild_self_use = False
exception_approved_cultural_public_use = True
board_attendance_ratio = 0
exception_main_part_self_use = False
investment_non_self_use_real_estate_prohibited = True
investment_self_use_real_estate_limit = 1
real_estate_transaction_related_party_approval = True
penalty = False
investment_non_self_use_real_estate_limit = 0